9	2	3
3	1	0	13	29	
0	0	0	9	4	8	8	10	2	2	2	5
5	3	0	4	8	3	6	5	7	1	3
4	0	1	4	6	10	10	7	8	1	4
2	3	0	2	7	1	3	2	9	1	9
6	0	1	2	5	2	2	10	3	2	6	7
5	2	0	6	9	7	3	7	6	1	8
5	1	0	5	10	3	8	6	8	1	8
5	0	1	5	9	3	4	9	10	1	9
0	0	0	1	10	6	1	2	7	0
